words_easy_train/words_915_SAT.qaiger
aag 46 16 0 1 30
26
22
24
4
12
28
32
18
6
8
14
2
30
16
10
20
92
34 30 14
36 23 7
38 21 5
40 20 4
42 41 3
44 43 39
46 44 37
48 22 6
50 24 8
52 51 49
54 52 47
56 27 11
58 25 9
60 59 57
62 60 55
64 26 10
66 28 12
68 67 65
70 68 63
72 31 15
74 29 13
76 75 73
78 76 71
80 79 35
82 33 17
84 32 16
86 85 83
88 87 80
90 86 81
92 91 89
i0 1 x2[4]
i1 1 x2[2]
i2 1 x2[3]
i3 2 y1[1]
i4 2 y1[5]
i5 1 x2[5]
i6 1 x2[7]
i7 1 x2[0]
i8 2 y1[2]
i9 2 y1[3]
i10 2 y1[6]
i11 2 y1[0]
i12 1 x2[6]
i13 2 y1[7]
i14 2 y1[4]
i15 1 x2[1]
o0 bv[0]
c
simplified
  <=
    or
      1 x2
      1
    invert
      2 y1
