words_easy_train/words_915_SAT.qaiger.qdimacs
p cnf 46 91
a 9 10 11 12 13 14 15 16 0
e 1 2 3 4 5 6 7 8 17 18 19 20 21 22 23 24 25 26 27 28 29 30 31 32 33 34 35 36 37 38 39 40 41 42 43 44 45 46 0
-15 -7 17 0
15 -17 0
7 -17 0
11 3 18 0
-11 -18 0
-3 -18 0
10 2 19 0
-10 -19 0
-2 -19 0
-10 -2 20 0
10 -20 0
2 -20 0
20 1 21 0
-20 -21 0
-1 -21 0
21 19 22 0
-21 -22 0
-19 -22 0
-22 18 23 0
22 -23 0
-18 -23 0
-11 -3 24 0
11 -24 0
3 -24 0
-12 -4 25 0
12 -25 0
4 -25 0
25 24 26 0
-25 -26 0
-24 -26 0
-26 23 27 0
26 -27 0
-23 -27 0
13 5 28 0
-13 -28 0
-5 -28 0
12 4 29 0
-12 -29 0
-4 -29 0
29 28 30 0
-29 -30 0
-28 -30 0
-30 27 31 0
30 -31 0
-27 -31 0
-13 -5 32 0
13 -32 0
5 -32 0
-14 -6 33 0
14 -33 0
6 -33 0
33 32 34 0
-33 -34 0
-32 -34 0
-34 31 35 0
34 -35 0
-31 -35 0
15 7 36 0
-15 -36 0
-7 -36 0
14 6 37 0
-14 -37 0
-6 -37 0
37 36 38 0
-37 -38 0
-36 -38 0
-38 35 39 0
38 -39 0
-35 -39 0
39 17 40 0
-39 -40 0
-17 -40 0
16 8 41 0
-16 -41 0
-8 -41 0
-16 -8 42 0
16 -42 0
8 -42 0
42 41 43 0
-42 -43 0
-41 -43 0
43 -40 44 0
-43 -44 0
40 -44 0
-43 40 45 0
43 -45 0
-40 -45 0
45 44 46 0
-45 -46 0
-44 -46 0
46 0
